# Solution for model GasLib-40
# Objective value = 1.0541451019454856e+01
loadshed[innode_1] 0
loadshed[innode_2] 0
loadshed[innode_3] 0
loadshed[innode_4] 0
loadshed[innode_5] 0
loadshed[innode_6] 0
loadshed[innode_7] 0
loadshed[innode_8] 0
loadshed[source_1] -2.5236191032227651e-01
loadshed[source_2] 1.3637255887751987e-01
loadshed[source_3] 1.8266929639524454e-01
loadshed[sink_1] 0
loadshed[sink_2] 0
loadshed[sink_3] 0
loadshed[sink_4] 0
loadshed[sink_5] 0
loadshed[sink_6] 0
loadshed[sink_7] 0
loadshed[sink_8] 0
loadshed[sink_9] 0
loadshed[sink_10] 0
loadshed[sink_11] 0
loadshed[sink_12] 6.4457280118959626e-01
loadshed[sink_13] 0
loadshed[sink_14] 0
loadshed[sink_15] 0
loadshed[sink_16] 0
loadshed[sink_17] 0
loadshed[sink_18] 0
loadshed[sink_19] 0
loadshed[sink_20] 0
loadshed[sink_21] 0
loadshed[sink_22] 0
loadshed[sink_23] 0
loadshed[sink_24] 0
loadshed[sink_25] 0
loadshed[sink_26] 0
loadshed[sink_27] 0
loadshed[sink_28] 0
loadshed[sink_29] 0
flow[source_1,sink_3] 1.9798624228115710e+02
flow[innode_1,sink_16] 1.6354166666666970e+01
flow[innode_6,sink_13] -1.4732871302515676e+01
flow[sink_13,sink_14] -3.1087037969182344e+01
flow[sink_14,sink_10] -4.7441204635849012e+01
flow[sink_25,sink_26] 1.5159067639983266e+02
flow[sink_26,sink_9] 1.3523650973316595e+02
flow[sink_9,sink_18] 1.1888234306649929e+02
flow[sink_26,sink_4] 0
flow[sink_4,sink_20] -16.3541666666693
flow[sink_18,sink_6] 1.0252817639983262e+02
flow[sink_25,innode_8] -1.6527790894782075e+02
flow[sink_6,sink_7] 5.3465676399831864e+01
flow[sink_6,sink_22] 3.2708333333333641e+01
flow[sink_7,sink_24] 3.8521048980545146e+01
flow[sink_22,sink_1] 1.6354166666666970e+01
flow[sink_24,sink_21] 2.2166882313878482e+01
flow[sink_21,sink_12] 5.8127156472118120e+00
flow[sink_7,sink_5] -1.4095392473797119e+00
flow[sink_5,sink_17] -1.7763705914046341e+01
flow[sink_17,sink_4] 0
flow[sink_17,sink_8] -3.4117872580712984e+01
flow[sink_3,sink_23] 16.3541666666697
flow[sink_8,sink_20] -5.0472039247379655e+01
flow[sink_25,sink_20] 8.3180372580715641e+01
flow[sink_25,sink_15] -7.1114435396878733e+01
flow[sink_15,sink_29] -1.0382276873022965e+02
flow[sink_29,sink_28] 1.6354166666667879e+01
flow[sink_29,sink_2] 0
flow[sink_2,sink_15] -1.6354166666684250e+01
flow[sink_29,innode_7] -1.3653110206356430e+02
flow[innode_4,sink_19] 5.0503798973507621e+01
flow[sink_19,innode_3] 4.7093400520378559e+01
flow[innode_4,innode_5] 7.8708238995674719e+01
flow[sink_27,innode_5] -7.8708238995674719e+01
flow[sink_27,sink_19] 6.2354072329008055e+01
flow[sink_10,sink_11] 3.2708333333333641e+01
flow[sink_10,innode_2] -4.9410304115470758e+01
flow[sink_10,innode_3] -4.7093400520378559e+01
flow[innode_6,sink_25] 1.4732871302515676e+01
flow[sink_11,innode_1] 1.6354166666666970e+01
flow[sink_19,innode_2] 4.9410304115470758e+01
flow[source_3,innode_4] 1.2921203796918235e+02
flow[source_2,innode_7] 1.3653110206356430e+02
flow[sink_3,innode_8] 1.6527790894782075e+02
pressure[innode_1] 7.6203972467824244e+01
pressure[innode_2] 7.8967212419169982e+01
pressure[innode_3] 7.8862929416466713e+01
pressure[innode_4] 81.01325
pressure[innode_5] 8.0959110322920480e+01
pressure[innode_6] 7.3974918650654644e+01
pressure[innode_7] 81.01325
pressure[innode_8] 8.0351457625540050e+01
pressure[source_1] 81.01325
pressure[source_2] 81.01325
pressure[source_3] 81.01325
pressure[sink_1] 4.6063819503500760e+01
pressure[sink_2] 7.4266500208021668e+01
pressure[sink_3] 8.0351457625540050e+01
pressure[sink_4] 5.2945154453722978e+01
pressure[sink_5] 4.8017157170174357e+01
pressure[sink_6] 4.8164897113888131e+01
pressure[sink_7] 4.7430940819802331e+01
pressure[sink_8] 5.0627780829540214e+01
pressure[sink_9] 5.5204222192728182e+01
pressure[sink_10] 7.6355673775427789e+01
pressure[sink_11] 7.6203972467824244e+01
pressure[sink_12] 1.0132499999999998e+00
pressure[sink_13] 7.4056138508053891e+01
pressure[sink_14] 7.4111771410529869e+01
pressure[sink_15] 7.4319892957788113e+01
pressure[sink_16] 7.5182322633006564e+01
pressure[sink_17] 4.9340424861016537e+01
pressure[sink_18] 5.0902704690261913e+01
pressure[sink_19] 7.8967212419169982e+01
pressure[sink_20] 5.4144972163114630e+01
pressure[sink_21] 3.0817323584445244e+00
pressure[sink_22] 4.7127588645855766e+01
pressure[sink_23] 8.0186739613880263e+01
pressure[sink_24] 3.3272099845807928e+00
pressure[sink_25] 7.3974918650654644e+01
pressure[sink_26] 6.3298476336081762e+01
pressure[sink_27] 8.0305977376444048e+01
pressure[sink_28] 7.7066295606160310e+01
pressure[sink_29] 7.7361577879777485e+01
interdiction[source_1,sink_3] 0
interdiction[innode_1,sink_16] 0
interdiction[innode_6,sink_13] 0
interdiction[sink_13,sink_14] 0
interdiction[sink_14,sink_10] 0
interdiction[sink_25,sink_26] 0
interdiction[sink_26,sink_9] 0
interdiction[sink_9,sink_18] 0
interdiction[sink_26,sink_4] 1
interdiction[sink_4,sink_20] 0
interdiction[sink_18,sink_6] 0
interdiction[sink_25,innode_8] 0
interdiction[sink_6,sink_7] 0
interdiction[sink_6,sink_22] 0
interdiction[sink_7,sink_24] 0
interdiction[sink_22,sink_1] 0
interdiction[sink_24,sink_21] 0
interdiction[sink_21,sink_12] 0
interdiction[sink_7,sink_5] 0
interdiction[sink_5,sink_17] 0
interdiction[sink_17,sink_4] 1
interdiction[sink_17,sink_8] 0
interdiction[sink_3,sink_23] 0
interdiction[sink_8,sink_20] 0
interdiction[sink_25,sink_20] 0
interdiction[sink_25,sink_15] 0
interdiction[sink_15,sink_29] 0
interdiction[sink_29,sink_28] 0
interdiction[sink_29,sink_2] 1
interdiction[sink_2,sink_15] 0
interdiction[sink_29,innode_7] 0
interdiction[innode_4,sink_19] 0
interdiction[sink_19,innode_3] 0
interdiction[innode_4,innode_5] 0
interdiction[sink_27,innode_5] 0
interdiction[sink_27,sink_19] 0
interdiction[sink_10,sink_11] 0
interdiction[sink_10,innode_2] 0
interdiction[sink_10,innode_3] 0
interdiction[innode_6,sink_25] 0
interdiction[sink_11,innode_1] 0
interdiction[sink_19,innode_2] 0
interdiction[source_3,innode_4] 0
interdiction[source_2,innode_7] 0
interdiction[sink_3,innode_8] 0
WCcheckFlow[source_1,sink_3] 39
WCcheckFlow[innode_1,sink_16] 1
WCcheckFlow[innode_6,sink_13] 13
WCcheckFlow[sink_13,sink_14] 12
WCcheckFlow[sink_14,sink_10] 11
WCcheckFlow[sink_25,sink_26] 15
WCcheckFlow[sink_26,sink_9] 14
WCcheckFlow[sink_9,sink_18] 13
WCcheckFlow[sink_26,sink_4] 0
WCcheckFlow[sink_4,sink_20] -1
WCcheckFlow[sink_18,sink_6] 12
WCcheckFlow[sink_25,innode_8] -36
WCcheckFlow[sink_6,sink_7] 9
WCcheckFlow[sink_6,sink_22] 2
WCcheckFlow[sink_7,sink_24] 3
WCcheckFlow[sink_22,sink_1] 1
WCcheckFlow[sink_24,sink_21] 2
WCcheckFlow[sink_21,sink_12] 1
WCcheckFlow[sink_7,sink_5] 5
WCcheckFlow[sink_5,sink_17] 4
WCcheckFlow[sink_17,sink_4] 0
WCcheckFlow[sink_17,sink_8] 3
WCcheckFlow[sink_3,sink_23] 1
WCcheckFlow[sink_8,sink_20] 2
WCcheckFlow[sink_25,sink_20] 0
WCcheckFlow[sink_25,sink_15] 6
WCcheckFlow[sink_15,sink_29] 4
WCcheckFlow[sink_29,sink_28] 1
WCcheckFlow[sink_29,sink_2] 0
WCcheckFlow[sink_2,sink_15] -1
WCcheckFlow[sink_29,innode_7] 2
WCcheckFlow[innode_4,sink_19] -4
WCcheckFlow[sink_19,innode_3] -5
WCcheckFlow[innode_4,innode_5] 2
WCcheckFlow[sink_27,innode_5] -1
WCcheckFlow[sink_27,sink_19] 0
WCcheckFlow[sink_10,sink_11] 3
WCcheckFlow[sink_10,innode_2] 1
WCcheckFlow[sink_10,innode_3] 6
WCcheckFlow[innode_6,sink_25] -14
WCcheckFlow[sink_11,innode_1] 2
WCcheckFlow[sink_19,innode_2] 0
WCcheckFlow[source_3,innode_4] -1
WCcheckFlow[source_2,innode_7] -1
WCcheckFlow[sink_3,innode_8] 37
